--- Job gams_0064_002_32_04_0.67_05_0.50_0.90_03_problem.txt Start 02/24/21 20:04:54 35.2.0 r33388c4 WEX-WEI x86 64bit/MS Windows
--- Applying:
    C:\Users\MariaSosnovskaya\GAMS35\gmsprmNT.txt
--- GAMS Parameters defined
    Input C:\Users\MariaSosnovskaya\Downloads\WfmGams3\problems\gams_0064_002_32_04_0.67_05_0.50_0.90_03_problem.txt
    ScrDir C:\Users\MariaSosnovskaya\Downloads\WfmGams3\225f\
    SysDir C:\Users\MariaSosnovskaya\GAMS35\
Licensee: GAMS Evaluation License                        S210124/0001AB-GEN
          Sobolev Institute of Mathematics, Discrete Optimization LaDCE1098
          C:\Users\MariaSosnovskaya\GAMS35\gamslice.txt
          Evaluation license: Not for commercial or production use
GAMS 35.2.0   Copyright (C) 1987-2021 GAMS Development. All rights reserved
--- Starting compilation
--- gams_0064_002_32_04_0.67_05_0.50_0.90_03_problem.txt(22) 3 Mb
--- . gams_0064_002_32_04_0.67_05_0.50_0.90_03.inc(6600) 3 Mb
--- gams_0064_002_32_04_0.67_05_0.50_0.90_03_problem.txt(98) 3 Mb
--- Starting execution: elapsed 0:00:00.034
--- gams_0064_002_32_04_0.67_05_0.50_0.90_03_problem.txt(6621) 4 Mb
--- Generating MIP model mymodel
--- gams_0064_002_32_04_0.67_05_0.50_0.90_03_problem.txt(6677) 9 Mb
---   16,769 rows  12,289 columns  56,417 non-zeroes
---   12,288 discrete-columns
--- Executing CPLEX (Solvelink=2): elapsed 0:00:00.159

IBM ILOG CPLEX   35.2.0 r33388c4 Released Jun 02, 2021 WEI x86 64bit/MS Window

--- GAMS/Cplex licensed for continuous and discrete problems.
--- Space for names approximately 0.61 Mb
--- Use option 'names no' to turn use of names off
--- GMO memory 6.31 Mb (peak 6.40 Mb)
--- Dictionary memory 0.00 Mb
--- Cplex 20.1.0.1 link memory 0.43 Mb (peak 1.99 Mb)
--- Starting Cplex

Version identifier: 20.1.0.1 | 2021-04-07 | 3a818710c
CPXPARAM_Advance                                 0
CPXPARAM_Threads                                 1
CPXPARAM_MIP_Display                             4
CPXPARAM_TimeLimit                               3600
CPXPARAM_MIP_Tolerances_AbsMIPGap                0
Generic callback                                 0x50
Tried aggregator 2 times.
MIP Presolve eliminated 8321 rows and 802 columns.
Aggregator did 192 substitutions.
Reduced MIP has 8256 rows, 11296 columns, and 37961 nonzeros.
Reduced MIP has 11296 binaries, 0 generals, 0 SOSs, and 0 indicators.
Presolve time = 0.06 sec. (42.47 ticks)
Probing fixed 888 vars, tightened 0 bounds.
Probing changed sense of 46 constraints.
Probing time = 0.08 sec. (29.81 ticks)
Tried aggregator 16 times.
MIP Presolve eliminated 368 rows and 947 columns.
Aggregator did 368 substitutions.
Reduced MIP has 7520 rows, 9981 columns, and 33931 nonzeros.
Reduced MIP has 9981 binaries, 0 generals, 0 SOSs, and 0 indicators.
Presolve time = 0.61 sec. (320.52 ticks)
Probing time = 0.02 sec. (4.46 ticks)
Tried aggregator 1 time.
Detecting symmetries...
Reduced MIP has 7520 rows, 9981 columns, and 33931 nonzeros.
Reduced MIP has 9981 binaries, 0 generals, 0 SOSs, and 0 indicators.
Presolve time = 0.05 sec. (30.06 ticks)
Probing time = 0.00 sec. (4.46 ticks)
Clique table members: 24865.
MIP emphasis: balance optimality and feasibility.
MIP search method: dynamic search.
Parallel mode: none, using 1 thread.
Tried aggregator 1 time.
No LP presolve or aggregator reductions.
Presolve time = 0.01 sec. (4.40 ticks)
Initializing dual steep norms . . .

Iteration log . . .
Iteration:     1   Dual objective     =          8525.000000
Perturbation started.
Iteration:   101   Dual objective     =          8525.000000
Iteration:   494   Dual objective     =          8524.999820
Iteration:   852   Dual objective     =          8524.999708
Iteration:  1229   Dual objective     =          8524.999588
Iteration:  1602   Dual objective     =          8524.999472
Iteration:  1981   Dual objective     =          8524.999350
Iteration:  2336   Dual objective     =          8524.999250
Iteration:  2680   Dual objective     =          8524.999200
Iteration:  3013   Dual objective     =          8524.999160
Iteration:  3342   Dual objective     =          8524.999127
Iteration:  3667   Dual objective     =          8524.999105
Iteration:  3969   Dual objective     =          8524.999087
Iteration:  4273   Dual objective     =          8524.999068
Iteration:  4558   Dual objective     =          8524.999054
Iteration:  4822   Dual objective     =          8524.999043
Iteration:  5061   Dual objective     =          8524.999033
Iteration:  5270   Dual objective     =          8524.999027
Iteration:  5441   Dual objective     =          8524.999021
Iteration:  5644   Dual objective     =          8524.999014
Iteration:  5831   Dual objective     =          8524.999007
Iteration:  6015   Dual objective     =          8524.999002
Iteration:  6154   Dual objective     =          8524.998996
Iteration:  6304   Dual objective     =          8524.998991
Iteration:  6456   Dual objective     =          8524.998986
Iteration:  6595   Dual objective     =          8524.998982
Iteration:  6732   Dual objective     =          8524.998978
Iteration:  6880   Dual objective     =          8524.998974
Iteration:  7012   Dual objective     =          8524.998972
Iteration:  7146   Dual objective     =          8524.998970
Iteration:  7274   Dual objective     =          8524.998968
Iteration:  7397   Dual objective     =          8524.998966
Iteration:  7524   Dual objective     =          8524.998965
Iteration:  7644   Dual objective     =          8524.998965
Removing perturbation.
Root relaxation solution time = 1.01 sec. (500.07 ticks)

        Nodes                                         Cuts/
   Node  Left     Objective  IInf  Best Integer    Best Bound    ItCnt     Gap

      0     0     8525.0000  1485                   8525.0000     7738         
      0     0     8525.0000   513                    Cuts: 15     7869         
      0     0     8525.0000   643                    Cuts: 84     8646         
      0     0     8525.0000   214                 ZeroHalf: 1     8647         
      0     0     8525.0000   262                ZeroHalf: 11     8810         
*     0+    0                         8525.0000     8525.0000             0.00%
Found incumbent of value 8525.000000 after 5.02 sec. (2899.22 ticks)
      0     0        cutoff           8525.0000     8525.0000     8810    0.00%
Elapsed time = 5.02 sec. (2899.22 ticks, tree = 0.01 MB, solutions = 1)

Zero-half cuts applied:  35
Lift and project cuts applied:  2
Gomory fractional cuts applied:  10

Root node processing (before b&c):
  Real time             =    5.04 sec. (2899.78 ticks)
Sequential b&c:
  Real time             =    0.00 sec. (0.00 ticks)
                          ------------
Total (root+branch&cut) =    5.04 sec. (2899.78 ticks)

--- MIP status (101): integer optimal solution.
--- Cplex Time: 5.04sec (det. 2899.81 ticks)

--- Fixing integer variables and solving final LP...

Version identifier: 20.1.0.1 | 2021-04-07 | 3a818710c
CPXPARAM_Advance                                 2
CPXPARAM_Threads                                 1
CPXPARAM_MIP_Display                             4
CPXPARAM_TimeLimit                               3600
CPXPARAM_MIP_Tolerances_AbsMIPGap                0
Tried aggregator 1 time.
LP Presolve eliminated 16769 rows and 12290 columns.
All rows and columns eliminated.
Presolve time = 0.00 sec. (7.10 ticks)

--- Fixed MIP status (1): optimal.
--- Cplex Time: 0.02sec (det. 12.44 ticks)


Proven optimal solution
MIP Solution:         8525.000000    (8810 iterations, 0 nodes)
Final Solve:          8525.000000    (0 iterations)

Best possible:        8525.000000
Absolute gap:            0.000000
Relative gap:            0.000000

--- Reading solution for model mymodel
--- Executing after solve: elapsed 0:00:05.380
--- gams_0064_002_32_04_0.67_05_0.50_0.90_03_problem.txt(6678) 9 Mb--- gams_0064_002_32_04_0.67_05_0.50_0.90_03_problem.txt(6698) 9 Mb
--- Putfile results C:\Users\MariaSosnovskaya\Downloads\WfmGams3\problems\gams_0064_002_32_04_0.67_05_0.50_0.90_03_results.txt
*** Status: Normal completion
--- Job gams_0064_002_32_04_0.67_05_0.50_0.90_03_problem.txt Stop 02/24/21 20:05:00 elapsed 0:00:05.401
